============================[ Problem Statistics ]=============================|                                                                             ||  Number of variables:          4242                                         ||  Number of clauses:            9688                                         ||  Parse time:                   0.09 s                                       ||                                                                             |============================[ Search Statistics ]==============================| Conflicts |          ORIGINAL         |          LEARNT          | Progress ||           |    Vars  Clauses Literals |    Limit  Clauses Lit/Cl |          |==============================================================================================================================================================restarts              : 1conflicts             : 57             (413 /sec)decisions             : 142            (0.00 % random) (1029 /sec)propagations          : 8142           (59000 /sec)conflict literals     : 2612           (95.90 % deleted)CPU time              : 0.138 sSATISFIABLE